20 10
49 3 60 12 75 31 70 88 9
49 53 88 47 19 61 78 30 41
15 59 15 46 60 47 41 34 22
18 7 26 17 87 32 9 33 34
65 65 11 43 27 34 47 21 83
55 58 16 16 48 69 94 7 55
1 24 55 91 72 32 26 94 3
79 55 59 94 88 1 65 10 8
10 26 81 73 48 1 17 73 75
37 40 53 89 59 80 42 85 30
77 89 92 12 74 19 59 82 57
80 94 23 58 86 57 80 62 65
79 51 55 25 49 98 7 99 89
84 74 79 24 94 37 75 67 60
93 54 13 55 15 31 63 61 90
21 86 89 1 95 51 96 10 84
85 22 2 67 41 66 7 4 74
64 83 17 3 94 38 10 70 17
46 19 97 1 15 62 47 31 2
35 44 41 71 71 72 38 49 19
